\ Model matlab_copy
\ LP format - for model browsing. Use MPS format to capture full model detail.
Minimize
 
Subject To
 R20: C20 - 455 C260 <= 0
 R44: C44 - 455 C284 <= 0
 R68: C68 - 130 C308 <= 0
 R92: C92 - 130 C332 <= 0
 R116: C116 - 162 C356 <= 0
 R140: C140 - 80 C380 <= 0
 R164: C164 - 85 C404 <= 0
 R188: C188 - 55 C428 <= 0
 R212: C212 - 55 C452 <= 0
 R236: C236 - 55 C476 <= 0
 R1749: C308 - C309 + C549 <= 0
 R1750: C309 - C310 + C550 <= 0
 R1751: C310 - C311 + C551 <= 0
 R1752: C311 - C312 + C552 <= 0
 R1773: C332 - C333 + C573 <= 0
 R1774: C333 - C334 + C574 <= 0
 R1775: C334 - C335 + C575 <= 0
 R1776: C335 - C336 + C576 <= 0
 R1797: C356 - C357 + C597 <= 0
 R1798: C357 - C358 + C598 <= 0
 R1799: C358 - C359 + C599 <= 0
 R1800: C359 - C360 + C600 <= 0
 R2180: - C20 - C44 - C68 - C92 - C116 - C140 - C164 - C188 - C212 - C236
   <= -1300
 R2187: C312 <= 0
 R2188: C336 <= 0
 R2189: C360 <= 0
Bounds
 C20 free
 C44 free
 C68 free
 C92 free
 C116 free
 C140 free
 C164 free
 C188 free
 C212 free
 C236 free
Binaries
 C260 C284 C308 C309 C310 C311 C312 C332 C333 C334 C335 C336 C356 C357 C358
 C359 C360 C380 C404 C428 C452 C476 C549 C550 C551 C552 C573 C574 C575 C576
 C597 C598 C599 C600
End
